
n_res = 6;
rcap = [19, 20, 20, 22, 1662, 1714];
rtype = [1, 1, 1, 1, 2, 2];
n_tasks = 100;
modes =  [{1, 2, 3, 4, 5, 6}, {7, 8, 9, 10, 11, 12}, {13, 14, 15, 16, 17, 18}, {19, 20, 21, 22, 23, 24}, {25, 26, 27, 28, 29, 30}, {31, 32, 33, 34, 35, 36}, {37, 38, 39, 40, 41, 42}, {43, 44, 45, 46, 47, 48}, {49, 50, 51, 52, 53, 54}, {55, 56, 57, 58, 59, 60}, {61, 62, 63, 64, 65, 66}, {67, 68, 69, 70, 71, 72}, {73, 74, 75, 76, 77, 78}, {79, 80, 81, 82, 83, 84}, {85, 86, 87, 88, 89, 90}, {91, 92, 93, 94, 95, 96}, {97, 98, 99, 100, 101, 102}, {103, 104, 105, 106, 107, 108}, {109, 110, 111, 112, 113, 114}, {115, 116, 117, 118, 119, 120}, {121, 122, 123, 124, 125, 126}, {127, 128, 129, 130, 131, 132}, {133, 134, 135, 136, 137, 138}, {139, 140, 141, 142, 143, 144}, {145, 146, 147, 148, 149, 150}, {151, 152, 153, 154, 155, 156}, {157, 158, 159, 160, 161, 162}, {163, 164, 165, 166, 167, 168}, {169, 170, 171, 172, 173, 174}, {175, 176, 177, 178, 179, 180}, {181, 182, 183, 184, 185, 186}, {187, 188, 189, 190, 191, 192}, {193, 194, 195, 196, 197, 198}, {199, 200, 201, 202, 203, 204}, {205, 206, 207, 208, 209, 210}, {211, 212, 213, 214, 215, 216}, {217, 218, 219, 220, 221, 222}, {223, 224, 225, 226, 227, 228}, {229, 230, 231, 232, 233, 234}, {235, 236, 237, 238, 239, 240}, {241, 242, 243, 244, 245, 246}, {247, 248, 249, 250, 251, 252}, {253, 254, 255, 256, 257, 258}, {259, 260, 261, 262, 263, 264}, {265, 266, 267, 268, 269, 270}, {271, 272, 273, 274, 275, 276}, {277, 278, 279, 280, 281, 282}, {283, 284, 285, 286, 287, 288}, {289, 290, 291, 292, 293, 294}, {295, 296, 297, 298, 299, 300}, {301, 302, 303, 304, 305, 306}, {307, 308, 309, 310, 311, 312}, {313, 314, 315, 316, 317, 318}, {319, 320, 321, 322, 323, 324}, {325, 326, 327, 328, 329, 330}, {331, 332, 333, 334, 335, 336}, {337, 338, 339, 340, 341, 342}, {343, 344, 345, 346, 347, 348}, {349, 350, 351, 352, 353, 354}, {355, 356, 357, 358, 359, 360}, {361, 362, 363, 364, 365, 366}, {367, 368, 369, 370, 371, 372}, {373, 374, 375, 376, 377, 378}, {379, 380, 381, 382, 383, 384}, {385, 386, 387, 388, 389, 390}, {391, 392, 393, 394, 395, 396}, {397, 398, 399, 400, 401, 402}, {403, 404, 405, 406, 407, 408}, {409, 410, 411, 412, 413, 414}, {415, 416, 417, 418, 419, 420}, {421, 422, 423, 424, 425, 426}, {427, 428, 429, 430, 431, 432}, {433, 434, 435, 436, 437, 438}, {439, 440, 441, 442, 443, 444}, {445, 446, 447, 448, 449, 450}, {451, 452, 453, 454, 455, 456}, {457, 458, 459, 460, 461, 462}, {463, 464, 465, 466, 467, 468}, {469, 470, 471, 472, 473, 474}, {475, 476, 477, 478, 479, 480}, {481, 482, 483, 484, 485, 486}, {487, 488, 489, 490, 491, 492}, {493, 494, 495, 496, 497, 498}, {499, 500, 501, 502, 503, 504}, {505, 506, 507, 508, 509, 510}, {511, 512, 513, 514, 515, 516}, {517, 518, 519, 520, 521, 522}, {523, 524, 525, 526, 527, 528}, {529, 530, 531, 532, 533, 534}, {535, 536, 537, 538, 539, 540}, {541, 542, 543, 544, 545, 546}, {547, 548, 549, 550, 551, 552}, {553, 554, 555, 556, 557, 558}, {559, 560, 561, 562, 563, 564}, {565, 566, 567, 568, 569, 570}, {571, 572, 573, 574, 575, 576}, {577, 578, 579, 580, 581, 582}, {583, 584, 585, 586, 587, 588}, {589, 590, 591, 592, 593, 594}, {595, 596, 597, 598, 599, 600}];
succ =  [{50, 49, 45, 44, 40, 38, 37, 36, 35, 33, 31, 28, 27, 25, 20, 19}, {38, 35, 33, 32, 27, 15, 8}, {52, 40, 39, 35, 33, 32, 31, 30, 26, 21, 20}, {52, 50, 48, 47, 45, 44, 40, 36, 35, 33, 32, 31, 29, 21}, {65, 52, 51, 50, 49, 48, 47, 45, 44, 42, 37, 35, 34, 33, 32, 31}, {51, 50, 37, 36, 33, 32, 25, 19}, {58, 52, 51, 50, 48, 47, 45, 42, 40, 37, 35, 33, 29}, {65, 61, 53, 51, 50, 49, 48, 45, 43, 41, 40, 37, 28}, {50, 48, 46, 45, 44, 40, 36, 33, 28, 26}, {58, 54, 50, 48, 46, 43, 40, 35, 19}, {71, 59, 58, 52, 51, 50, 49, 47, 42, 39, 37, 25}, {58, 52, 51, 49, 47, 42, 40, 39, 37, 35, 33}, {59, 54, 52, 49, 48, 47, 44, 43, 38, 29, 26}, {65, 58, 52, 51, 50, 48, 47, 35, 31, 29}, {59, 54, 50, 44, 40, 37, 29, 26}, {58, 56, 54, 52, 50, 47, 42, 41, 37, 35}, {58, 53, 51, 50, 48, 47, 44, 43, 31, 29}, {71, 61, 59, 56, 54, 52, 50, 42, 41, 37}, {64, 59, 52, 29, 26}, {100, 65, 54, 53, 48, 43, 29}, {82, 77, 76, 71, 65, 64, 61, 59, 58, 57, 56, 53, 51, 49, 46}, {100, 82, 60, 58, 52, 50, 40, 35}, {100, 82, 71, 67, 64, 60, 58, 56, 52, 51, 36}, {61, 59, 58, 57, 55, 50, 43, 39}, {82, 61, 54, 53, 48, 46, 41}, {100, 75, 74, 71, 70, 67, 65, 61, 60, 56, 55, 53, 42}, {82, 76, 70, 69, 61, 60, 58, 57, 56, 53, 52, 48, 47}, {100, 77, 75, 74, 70, 67, 59, 55, 54, 52, 42}, {82, 71, 70, 69, 68, 67, 63, 61, 60, 41}, {98, 76, 70, 69, 63, 59, 57, 47, 43}, {100, 71, 69, 63, 61, 56, 54, 41}, {82, 71, 70, 68, 61, 59, 58, 41}, {71, 69, 67, 63, 61, 54, 41}, {100, 98, 95, 82, 77, 71, 70, 69, 68, 67, 64, 63, 60, 58, 55}, {99, 77, 76, 75, 74, 71, 69, 68, 67, 61, 59, 57, 55, 53}, {70, 69, 68, 63, 61, 41}, {100, 98, 77, 76, 64, 63, 62, 55, 46}, {99, 81, 71, 68, 61, 58, 57, 55, 53}, {100, 99, 98, 95, 94, 77, 76, 75, 74, 73, 70, 66, 64, 63, 60, 56}, {99, 98, 95, 77, 76, 74, 71, 68, 64, 63, 56, 55}, {99, 98, 81, 80, 77, 76, 75, 74, 57, 55}, {99, 96, 95, 82, 81, 76, 73, 72, 69, 68, 63, 57}, {95, 92, 82, 75, 74, 73, 71, 68, 67, 66, 56}, {98, 97, 96, 79, 77, 73, 70, 68, 66, 63, 60}, {99, 97, 96, 95, 93, 88, 81, 80, 79, 74, 73, 72, 68, 66}, {99, 96, 95, 93, 89, 78, 70, 69, 67, 66, 60}, {99, 95, 93, 74, 68, 62, 55}, {98, 97, 93, 92, 79, 68, 66, 63, 62}, {100, 99, 97, 95, 92, 91, 88, 79, 75, 72, 63}, {98, 96, 93, 92, 89, 80, 79, 72, 68, 62}, {96, 95, 93, 92, 88, 87, 79, 74, 73, 68}, {99, 98, 95, 93, 92, 89, 88, 84, 80, 79, 72, 66}, {98, 97, 95, 92, 90, 87, 79, 72, 63}, {95, 93, 90, 81, 79, 78, 64}, {96, 94, 92, 79, 78, 73, 72, 66}, {97, 96, 93, 81, 80, 79, 78, 72}, {97, 94, 93, 91, 62}, {94, 93, 92, 86, 85, 83, 75, 74}, {95, 93, 91, 89, 88, 78, 72}, {92, 91, 88, 84, 81, 72}, {98, 96, 95, 89, 88, 87, 85, 84}, {90, 88, 87, 86, 85, 83, 78}, {89, 85, 80, 78}, {97, 88, 86, 72}, {89, 83, 79, 78}, {91, 90, 86, 85, 83}, {94, 91, 87, 84, 83}, {94, 90, 83, 78}, {92, 88, 80}, {91, 88, 80}, {72}, {85, 83}, {85, 83}, {89, 84}, {87, 84}, {85, 83}, {90, 84}, {84}, {86}, {83}, {87}, {86}, {}, {}, {}, {}, {}, {}, {}, {}, {}, {}, {}, {}, {}, {}, {}, {}, {}, {}];
n_opt = 600;
dur = [5, 8, 9, 11, 25, 28, 2, 6, 11, 12, 13, 14, 13, 18, 20, 22, 25, 27, 6, 9, 17, 18, 20, 22, 1, 2, 9, 19, 28, 30, 2, 3, 15, 16, 17, 20, 2, 6, 8, 13, 14, 16, 2, 12, 15, 18, 26, 27, 1, 2, 6, 22, 25, 29, 1, 8, 9, 11, 12, 30, 5, 8, 13, 26, 29, 30, 14, 15, 19, 20, 23, 24, 3, 14, 19, 28, 29, 30, 12, 14, 15, 17, 24, 27, 1, 4, 6, 22, 23, 30, 1, 5, 6, 21, 24, 30, 2, 8, 9, 17, 18, 22, 3, 8, 10, 15, 20, 24, 3, 4, 9, 10, 11, 15, 6, 13, 21, 22, 24, 29, 2, 10, 21, 22, 27, 28, 7, 11, 12, 24, 28, 30, 1, 2, 9, 23, 24, 30, 3, 9, 14, 20, 22, 30, 16, 18, 22, 24, 26, 30, 10, 11, 13, 14, 24, 30, 3, 8, 12, 14, 28, 29, 14, 15, 19, 23, 24, 25, 1, 5, 13, 15, 16, 17, 1, 5, 7, 8, 14, 22, 1, 7, 21, 22, 23, 24, 11, 12, 15, 16, 21, 27, 6, 7, 14, 18, 27, 30, 4, 12, 13, 14, 19, 21, 6, 11, 12, 17, 23, 24, 6, 12, 16, 24, 25, 26, 11, 11, 12, 19, 21, 26, 14, 19, 21, 22, 25, 28, 8, 14, 15, 16, 19, 26, 9, 12, 15, 21, 22, 30, 3, 11, 13, 27, 29, 30, 13, 19, 20, 22, 29, 30, 1, 7, 8, 9, 14, 23, 14, 15, 17, 20, 22, 23, 9, 10, 11, 12, 13, 21, 4, 5, 7, 10, 11, 20, 3, 4, 11, 13, 17, 29, 5, 17, 20, 25, 26, 28, 13, 14, 20, 24, 26, 30, 3, 4, 10, 14, 15, 29, 2, 4, 7, 9, 13, 26, 2, 4, 5, 7, 8, 22, 9, 14, 19, 20, 21, 25, 2, 4, 6, 15, 21, 26, 5, 6, 11, 17, 20, 30, 1, 5, 9, 18, 26, 30, 2, 11, 12, 15, 16, 29, 1, 11, 12, 24, 25, 30, 2, 3, 4, 6, 7, 21, 5, 8, 12, 14, 15, 27, 1, 5, 7, 8, 10, 24, 6, 11, 12, 24, 26, 30, 8, 26, 27, 28, 29, 30, 1, 6, 10, 11, 20, 25, 7, 10, 11, 21, 25, 29, 3, 10, 11, 18, 19, 20, 4, 20, 21, 22, 23, 29, 7, 12, 17, 20, 21, 23, 5, 10, 13, 15, 17, 27, 5, 7, 10, 12, 21, 29, 5, 6, 7, 17, 29, 30, 6, 14, 15, 19, 22, 23, 4, 5, 17, 19, 20, 22, 5, 6, 7, 9, 21, 29, 6, 7, 17, 19, 20, 23, 3, 6, 13, 15, 16, 27, 9, 10, 13, 18, 19, 27, 6, 8, 14, 15, 20, 26, 3, 9, 11, 12, 19, 29, 10, 11, 13, 21, 24, 27, 1, 6, 7, 9, 19, 21, 7, 11, 17, 18, 24, 26, 7, 15, 18, 19, 23, 24, 1, 2, 3, 17, 18, 19, 4, 8, 9, 15, 16, 20, 6, 7, 17, 18, 28, 30, 4, 5, 12, 15, 16, 18, 1, 9, 17, 18, 26, 27, 2, 3, 6, 8, 10, 18, 8, 11, 12, 17, 26, 29, 2, 7, 16, 24, 25, 26, 5, 9, 14, 19, 20, 27, 2, 3, 4, 5, 15, 27, 7, 11, 15, 17, 23, 29, 2, 8, 10, 11, 12, 24, 1, 5, 10, 12, 22, 28, 5, 6, 7, 15, 23, 29, 3, 10, 11, 15, 21, 23, 5, 12, 20, 21, 28, 29, 3, 6, 10, 17, 23, 24];
rreq = [|4, 3, 3, 3, 2, 2, 2, 2, 2, 2, 2, 2, 2, 2, 2, 1, 1, 1, 2, 2, 2, 2, 2, 2, 5, 4, 4, 3, 2, 2, 4, 4, 4, 3, 3, 3, 4, 3, 3, 3, 3, 3, 4, 4, 4, 4, 4, 4, 4, 4, 3, 3, 2, 2, 5, 3, 3, 2, 1, 1, 3, 3, 3, 3, 3, 3, 1, 1, 1, 1, 1, 1, 4, 4, 4, 4, 4, 4, 5, 4, 4, 3, 3, 3, 3, 3, 3, 3, 3, 3, 3, 3, 3, 2, 1, 1, 3, 3, 3, 3, 3, 3, 1, 1, 1, 1, 1, 1, 3, 2, 2, 2, 2, 2, 3, 3, 2, 2, 2, 1, 4, 3, 3, 3, 3, 3, 4, 3, 3, 3, 3, 3, 4, 4, 4, 4, 4, 4, 4, 3, 3, 2, 2, 1, 1, 1, 1, 1, 1, 1, 2, 1, 1, 1, 1, 1, 4, 4, 4, 3, 2, 2, 4, 4, 4, 4, 4, 4, 4, 4, 4, 3, 3, 2, 5, 4, 4, 4, 4, 4, 1, 1, 1, 1, 1, 1, 5, 4, 4, 4, 4, 4, 3, 2, 2, 2, 2, 2, 1, 1, 1, 1, 1, 1, 2, 1, 1, 1, 1, 1, 3, 2, 2, 2, 2, 2, 1, 1, 1, 1, 1, 1, 2, 2, 2, 2, 1, 1, 1, 1, 1, 1, 1, 1, 1, 1, 1, 1, 1, 1, 1, 1, 1, 1, 1, 1, 4, 4, 3, 3, 2, 2, 2, 2, 2, 2, 2, 2, 3, 3, 3, 3, 3, 3, 4, 4, 4, 3, 2, 2, 3, 3, 3, 2, 2, 1, 4, 4, 4, 4, 4, 4, 5, 4, 4, 4, 4, 4, 4, 4, 4, 4, 4, 4, 1, 1, 1, 1, 1, 1, 5, 4, 3, 3, 2, 1, 3, 3, 3, 2, 2, 2, 3, 3, 3, 3, 2, 2, 3, 2, 2, 2, 2, 2, 4, 4, 4, 4, 4, 4, 3, 3, 3, 3, 3, 3, 3, 3, 3, 3, 2, 2, 5, 4, 4, 4, 4, 4, 5, 4, 3, 3, 2, 2, 4, 4, 4, 4, 4, 4, 2, 2, 2, 2, 2, 2, 3, 3, 3, 3, 3, 3, 3, 3, 3, 3, 3, 3, 2, 2, 2, 2, 1, 1, 5, 4, 4, 3, 2, 2, 4, 3, 3, 2, 2, 1, 4, 4, 4, 4, 4, 4, 2, 2, 2, 2, 2, 2, 4, 3, 3, 2, 2, 1, 2, 1, 1, 1, 1, 1, 4, 3, 3, 2, 2, 2, 4, 4, 4, 4, 3, 3, 5, 4, 3, 3, 2, 2, 2, 2, 2, 2, 2, 2, 5, 4, 4, 4, 3, 3, 3, 3, 3, 3, 3, 3, 5, 4, 4, 4, 4, 4, 4, 3, 3, 3, 2, 2, 4, 4, 4, 3, 2, 2, 3, 3, 2, 2, 2, 1, 3, 2, 2, 2, 2, 2, 5, 4, 4, 3, 3, 2, 3, 3, 2, 2, 2, 1, 4, 3, 2, 2, 1, 1, 4, 4, 4, 4, 3, 3, 5, 3, 3, 2, 2, 1, 3, 3, 3, 3, 3, 3, 4, 3, 3, 3, 3, 3, 5, 3, 3, 3, 1, 1, 3, 3, 3, 3, 3, 3, 3, 3, 3, 3, 3, 3, 5, 4, 4, 4, 4, 4, 2, 2, 2, 2, 2, 2, 2, 1, 1, 1, 1, 1, 3, 3, 3, 2, 2, 2, 2, 1, 1, 1, 1, 1, 5, 4, 4, 4, 3, 3, 3, 2, 2, 1, 1, 1, 4, 4, 4, 4, 4, 4, 3, 3, 3, 2, 2, 1
 |1, 1, 1, 1, 1, 1, 5, 4, 4, 3, 3, 3, 1, 1, 1, 1, 1, 1, 2, 2, 2, 2, 2, 2, 1, 1, 1, 1, 1, 1, 5, 5, 5, 5, 5, 5, 4, 4, 4, 4, 4, 4, 4, 4, 4, 4, 3, 3, 4, 3, 3, 3, 3, 3, 4, 4, 4, 4, 3, 3, 5, 5, 5, 5, 5, 5, 4, 3, 2, 2, 1, 1, 3, 2, 2, 2, 2, 2, 4, 4, 4, 3, 2, 2, 3, 3, 3, 2, 2, 2, 5, 4, 4, 3, 3, 3, 5, 4, 4, 3, 3, 3, 4, 4, 3, 3, 2, 1, 3, 2, 2, 2, 2, 2, 5, 4, 3, 2, 1, 1, 1, 1, 1, 1, 1, 1, 3, 3, 2, 2, 1, 1, 2, 2, 2, 2, 1, 1, 5, 4, 4, 3, 3, 2, 4, 3, 3, 2, 1, 1, 2, 2, 2, 1, 1, 1, 4, 3, 3, 3, 3, 3, 4, 4, 4, 4, 4, 4, 5, 4, 3, 3, 3, 2, 1, 1, 1, 1, 1, 1, 3, 3, 3, 3, 2, 2, 4, 4, 4, 3, 2, 2, 4, 4, 4, 4, 4, 4, 4, 4, 4, 4, 4, 4, 5, 4, 3, 3, 2, 1, 3, 3, 3, 3, 3, 3, 4, 3, 3, 3, 3, 3, 2, 2, 2, 2, 2, 2, 4, 4, 4, 3, 3, 3, 3, 2, 2, 1, 1, 1, 5, 4, 3, 2, 2, 1, 3, 3, 3, 2, 2, 2, 3, 3, 3, 3, 3, 3, 3, 3, 3, 2, 2, 1, 3, 3, 3, 3, 3, 3, 5, 5, 5, 5, 5, 5, 2, 2, 2, 2, 2, 2, 4, 4, 4, 4, 3, 3, 3, 3, 3, 2, 2, 2, 4, 4, 4, 4, 3, 3, 5, 4, 4, 3, 3, 3, 4, 3, 3, 3, 3, 3, 1, 1, 1, 1, 1, 1, 3, 3, 3, 3, 3, 3, 5, 4, 4, 3, 2, 2, 1, 1, 1, 1, 1, 1, 3, 3, 3, 3, 3, 3, 3, 3, 3, 2, 2, 1, 5, 4, 3, 2, 2, 1, 4, 3, 3, 3, 3, 3, 3, 2, 2, 1, 1, 1, 5, 4, 4, 4, 3, 3, 4, 3, 3, 3, 1, 1, 4, 4, 4, 4, 4, 4, 3, 3, 2, 2, 2, 1, 5, 4, 4, 4, 3, 3, 5, 4, 4, 3, 3, 3, 2, 2, 2, 2, 2, 2, 3, 3, 3, 3, 2, 2, 5, 4, 4, 4, 3, 3, 3, 2, 2, 2, 2, 2, 3, 2, 2, 2, 2, 2, 2, 2, 2, 2, 1, 1, 1, 1, 1, 1, 1, 1, 2, 2, 2, 2, 2, 2, 3, 3, 3, 3, 3, 3, 4, 3, 3, 2, 1, 1, 4, 4, 4, 3, 3, 3, 3, 2, 2, 2, 1, 1, 3, 3, 3, 3, 2, 2, 3, 3, 3, 3, 3, 3, 4, 4, 3, 2, 2, 1, 4, 4, 3, 3, 2, 1, 5, 4, 3, 3, 2, 2, 2, 2, 2, 2, 1, 1, 4, 4, 4, 4, 3, 3, 3, 3, 3, 2, 2, 2, 1, 1, 1, 1, 1, 1, 2, 1, 1, 1, 1, 1, 5, 4, 4, 4, 4, 4, 2, 2, 2, 2, 2, 2, 4, 4, 4, 4, 4, 4, 2, 2, 2, 2, 2, 2, 4, 4, 4, 3, 2, 2, 2, 2, 2, 2, 2, 2, 4, 3, 3, 2, 2, 1, 5, 4, 3, 3, 2, 2, 4, 4, 4, 4, 3, 3, 1, 1, 1, 1, 1, 1, 3, 3, 3, 3, 3, 3
 |2, 1, 1, 1, 1, 1, 5, 4, 4, 4, 4, 4, 5, 4, 4, 4, 4, 4, 4, 4, 4, 3, 3, 2, 4, 4, 4, 4, 4, 4, 4, 4, 4, 4, 4, 4, 4, 4, 3, 3, 1, 1, 1, 1, 1, 1, 1, 1, 4, 3, 3, 3, 3, 3, 1, 1, 1, 1, 1, 1, 4, 3, 2, 2, 2, 1, 5, 3, 3, 2, 2, 1, 4, 3, 3, 3, 3, 3, 3, 3, 3, 2, 2, 2, 5, 4, 4, 4, 4, 4, 2, 1, 1, 1, 1, 1, 3, 2, 2, 2, 2, 2, 5, 5, 5, 5, 5, 5, 3, 3, 3, 3, 3, 3, 5, 4, 4, 3, 3, 2, 3, 3, 3, 3, 2, 2, 2, 2, 2, 1, 1, 1, 3, 3, 3, 3, 3, 3, 2, 1, 1, 1, 1, 1, 3, 3, 3, 3, 3, 3, 3, 3, 3, 3, 2, 2, 1, 1, 1, 1, 1, 1, 1, 1, 1, 1, 1, 1, 1, 1, 1, 1, 1, 1, 2, 2, 2, 1, 1, 1, 3, 2, 2, 1, 1, 1, 2, 2, 2, 1, 1, 1, 1, 1, 1, 1, 1, 1, 2, 1, 1, 1, 1, 1, 3, 3, 3, 3, 2, 2, 4, 4, 3, 3, 3, 2, 3, 2, 2, 2, 1, 1, 4, 3, 3, 2, 1, 1, 2, 2, 2, 2, 2, 2, 4, 3, 3, 3, 3, 3, 3, 2, 2, 2, 2, 2, 3, 2, 2, 1, 1, 1, 2, 2, 2, 2, 2, 2, 4, 3, 3, 3, 3, 3, 1, 1, 1, 1, 1, 1, 4, 3, 3, 3, 2, 1, 4, 4, 4, 4, 4, 4, 1, 1, 1, 1, 1, 1, 3, 3, 3, 3, 3, 3, 4, 3, 3, 3, 3, 3, 5, 5, 5, 5, 5, 5, 4, 3, 3, 3, 2, 2, 2, 2, 2, 2, 2, 2, 5, 5, 5, 5, 5, 5, 3, 2, 2, 2, 1, 1, 3, 3, 3, 3, 3, 3, 2, 2, 2, 1, 1, 1, 4, 3, 3, 3, 3, 3, 2, 1, 1, 1, 1, 1, 3, 3, 3, 2, 1, 1, 3, 3, 3, 3, 3, 3, 3, 3, 3, 2, 1, 1, 4, 4, 4, 4, 3, 3, 5, 5, 5, 5, 5, 5, 4, 3, 3, 3, 3, 3, 5, 4, 4, 3, 3, 3, 4, 3, 3, 3, 2, 2, 2, 2, 2, 2, 2, 2, 2, 1, 1, 1, 1, 1, 5, 4, 4, 4, 4, 4, 5, 3, 3, 3, 2, 1, 2, 2, 2, 2, 2, 2, 5, 3, 3, 3, 2, 1, 4, 4, 4, 4, 4, 4, 1, 1, 1, 1, 1, 1, 2, 2, 2, 2, 1, 1, 3, 3, 3, 2, 2, 2, 5, 4, 4, 4, 3, 3, 4, 3, 3, 3, 3, 3, 5, 4, 4, 4, 4, 4, 4, 4, 4, 3, 3, 2, 3, 2, 2, 1, 1, 1, 5, 4, 3, 3, 2, 2, 1, 1, 1, 1, 1, 1, 3, 2, 2, 2, 1, 1, 5, 4, 4, 4, 4, 4, 4, 3, 2, 2, 2, 1, 1, 1, 1, 1, 1, 1, 4, 4, 4, 4, 4, 4, 4, 4, 4, 4, 4, 4, 3, 3, 2, 2, 1, 1, 3, 3, 3, 3, 3, 3, 4, 4, 4, 4, 4, 4, 3, 3, 3, 3, 3, 3, 5, 4, 4, 4, 4, 4, 3, 3, 3, 2, 2, 2, 5, 4, 4, 3, 2, 2, 4, 4, 3, 3, 2, 1, 2, 2, 2, 2, 2, 2, 4, 3, 2, 2, 1, 1
 |4, 3, 3, 3, 3, 3, 4, 4, 4, 3, 3, 3, 5, 5, 5, 5, 5, 5, 5, 4, 3, 2, 1, 1, 5, 3, 3, 3, 2, 1, 4, 3, 3, 2, 2, 2, 4, 4, 4, 4, 4, 4, 2, 2, 2, 2, 2, 2, 5, 4, 4, 4, 4, 4, 4, 3, 3, 2, 1, 1, 4, 4, 3, 3, 3, 2, 5, 4, 4, 4, 4, 4, 4, 3, 2, 2, 1, 1, 4, 3, 3, 3, 2, 2, 2, 2, 2, 2, 2, 2, 1, 1, 1, 1, 1, 1, 3, 2, 2, 2, 2, 2, 2, 2, 2, 2, 2, 2, 1, 1, 1, 1, 1, 1, 2, 2, 2, 2, 2, 2, 3, 3, 3, 2, 1, 1, 4, 4, 4, 3, 3, 2, 4, 3, 3, 3, 1, 1, 4, 3, 2, 2, 1, 1, 3, 3, 3, 3, 3, 3, 3, 3, 3, 3, 3, 3, 3, 3, 3, 2, 2, 2, 3, 3, 3, 3, 3, 3, 3, 3, 2, 2, 1, 1, 4, 4, 3, 2, 2, 1, 3, 3, 3, 3, 3, 3, 2, 2, 2, 2, 2, 2, 3, 3, 3, 3, 3, 3, 3, 2, 2, 2, 1, 1, 3, 3, 3, 3, 3, 3, 1, 1, 1, 1, 1, 1, 3, 3, 3, 2, 2, 2, 3, 2, 2, 1, 1, 1, 5, 5, 5, 5, 5, 5, 5, 4, 4, 4, 4, 4, 4, 3, 3, 3, 3, 3, 4, 4, 4, 4, 4, 4, 4, 3, 3, 3, 3, 3, 5, 4, 4, 4, 4, 4, 4, 4, 4, 3, 2, 2, 4, 4, 4, 3, 3, 3, 3, 2, 2, 2, 2, 2, 3, 2, 2, 2, 2, 2, 5, 5, 5, 5, 5, 5, 4, 3, 2, 2, 1, 1, 5, 4, 4, 3, 3, 2, 4, 4, 4, 4, 4, 4, 4, 4, 4, 3, 2, 2, 3, 2, 2, 2, 1, 1, 3, 3, 3, 3, 3, 3, 4, 4, 4, 4, 4, 4, 3, 3, 2, 2, 1, 1, 5, 4, 4, 4, 4, 4, 3, 3, 3, 3, 3, 3, 2, 2, 2, 2, 1, 1, 2, 1, 1, 1, 1, 1, 4, 4, 4, 4, 3, 3, 4, 4, 4, 4, 4, 4, 3, 3, 3, 3, 3, 3, 4, 4, 4, 4, 4, 4, 4, 4, 4, 3, 3, 2, 4, 4, 4, 4, 4, 4, 5, 4, 4, 3, 2, 2, 2, 2, 2, 2, 2, 2, 1, 1, 1, 1, 1, 1, 1, 1, 1, 1, 1, 1, 4, 3, 3, 2, 1, 1, 4, 4, 4, 4, 4, 4, 2, 1, 1, 1, 1, 1, 3, 3, 3, 3, 3, 3, 5, 4, 3, 3, 2, 2, 4, 3, 2, 2, 2, 1, 2, 2, 2, 2, 1, 1, 5, 4, 4, 3, 3, 3, 5, 4, 4, 3, 3, 2, 3, 3, 3, 2, 1, 1, 4, 4, 4, 4, 4, 4, 4, 3, 3, 3, 3, 3, 4, 3, 3, 3, 1, 1, 1, 1, 1, 1, 1, 1, 2, 2, 2, 2, 2, 2, 2, 1, 1, 1, 1, 1, 4, 4, 4, 3, 3, 3, 5, 4, 3, 3, 2, 2, 2, 2, 2, 2, 2, 2, 4, 4, 4, 4, 4, 4, 3, 3, 3, 3, 3, 3, 4, 4, 4, 4, 4, 4, 4, 4, 3, 3, 2, 2, 4, 3, 3, 2, 1, 1, 5, 5, 5, 5, 5, 5, 2, 2, 2, 1, 1, 1, 3, 3, 3, 3, 3, 3, 2, 1, 1, 1, 1, 1, 2, 2, 2, 2, 2, 2
 |29, 26, 22, 21, 17, 16, 22, 21, 19, 17, 14, 13, 28, 24, 23, 19, 16, 16, 6, 6, 6, 6, 6, 6, 30, 25, 22, 22, 18, 15, 8, 8, 7, 6, 4, 4, 27, 24, 23, 20, 18, 16, 22, 22, 16, 10, 6, 2, 16, 16, 16, 16, 16, 16, 19, 17, 16, 15, 14, 14, 24, 22, 22, 20, 19, 18, 29, 26, 23, 22, 17, 15, 26, 25, 25, 25, 24, 24, 13, 12, 12, 9, 8, 7, 20, 16, 13, 13, 7, 7, 4, 4, 4, 3, 3, 2, 14, 14, 14, 13, 12, 12, 3, 3, 2, 2, 1, 1, 26, 24, 21, 21, 18, 17, 22, 19, 18, 15, 13, 10, 23, 18, 16, 16, 11, 8, 30, 29, 29, 29, 29, 29, 26, 20, 17, 12, 9, 7, 13, 10, 10, 8, 6, 6, 19, 19, 16, 11, 6, 2, 9, 9, 8, 8, 7, 7, 26, 23, 23, 20, 19, 18, 22, 20, 20, 19, 17, 17, 22, 21, 21, 21, 20, 20, 10, 9, 9, 8, 8, 8, 23, 19, 19, 16, 14, 13, 17, 15, 14, 10, 8, 4, 6, 6, 5, 5, 4, 4, 14, 13, 13, 13, 12, 12, 14, 12, 11, 9, 8, 7, 28, 23, 21, 19, 14, 13, 7, 5, 5, 4, 4, 3, 22, 21, 21, 20, 20, 20, 21, 19, 17, 15, 10, 9, 10, 9, 9, 8, 8, 8, 24, 23, 20, 19, 19, 16, 14, 11, 9, 5, 5, 1, 17, 16, 13, 13, 12, 9, 9, 9, 9, 9, 9, 9, 25, 25, 22, 22, 19, 19, 12, 9, 9, 7, 6, 5, 25, 23, 22, 20, 20, 17, 16, 16, 12, 11, 9, 8, 17, 16, 16, 16, 16, 16, 23, 23, 23, 23, 23, 23, 27, 19, 19, 11, 5, 1, 14, 14, 11, 10, 5, 3, 28, 21, 18, 15, 6, 3, 30, 26, 25, 24, 21, 20, 20, 17, 16, 15, 10, 9, 18, 16, 13, 13, 12, 9, 1, 1, 1, 1, 1, 1, 15, 14, 12, 10, 7, 4, 25, 21, 21, 16, 14, 12, 9, 9, 9, 8, 8, 8, 12, 10, 9, 9, 5, 4, 7, 7, 7, 6, 6, 6, 22, 18, 16, 14, 13, 12, 21, 15, 12, 8, 6, 3, 23, 22, 21, 20, 17, 17, 21, 17, 16, 14, 12, 10, 13, 11, 9, 8, 4, 2, 20, 15, 13, 12, 8, 8, 25, 20, 20, 16, 13, 10, 23, 18, 17, 16, 12, 12, 13, 10, 10, 8, 6, 5, 14, 13, 13, 12, 11, 9, 10, 7, 6, 6, 5, 3, 18, 15, 14, 12, 11, 9, 27, 22, 19, 15, 14, 10, 16, 13, 10, 7, 3, 2, 30, 28, 24, 22, 20, 19, 26, 25, 23, 21, 18, 16, 28, 24, 22, 18, 15, 10, 17, 14, 12, 11, 8, 7, 16, 15, 14, 13, 11, 8, 15, 15, 13, 10, 7, 7, 22, 17, 16, 14, 11, 8, 26, 23, 22, 19, 18, 16, 16, 14, 14, 13, 11, 10, 10, 10, 10, 9, 9, 9, 23, 23, 23, 23, 23, 23, 9, 9, 9, 9, 9, 9, 23, 22, 21, 21, 20, 18, 23, 22, 18, 16, 12, 10, 22, 20, 18, 17, 13, 12, 30, 28, 27, 26, 25, 24, 27, 24, 20, 15, 13, 7, 10, 9, 9, 8, 6, 6, 21, 20, 19, 15, 13, 13, 14, 14, 9, 8, 7, 2, 16, 16, 14, 14, 13, 12, 16, 14, 10, 8, 7, 4, 14, 13, 13, 12, 10, 10, 16, 14, 14, 11, 7, 6
 |21, 20, 18, 17, 16, 15, 23, 18, 16, 16, 12, 8, 21, 20, 20, 20, 18, 17, 22, 19, 16, 14, 11, 7, 28, 28, 28, 28, 27, 27, 16, 16, 13, 13, 11, 8, 22, 21, 17, 17, 13, 13, 26, 25, 23, 21, 21, 20, 19, 18, 17, 16, 16, 15, 16, 13, 12, 10, 9, 8, 16, 16, 16, 16, 16, 16, 11, 11, 10, 9, 8, 8, 29, 28, 26, 25, 24, 23, 21, 17, 14, 11, 11, 5, 12, 10, 8, 5, 3, 2, 24, 21, 20, 18, 16, 15, 25, 20, 15, 12, 11, 6, 7, 6, 6, 5, 6, 6, 12, 11, 11, 10, 10, 10, 26, 23, 18, 17, 15, 11, 25, 24, 22, 21, 21, 19, 14, 14, 13, 11, 10, 10, 10, 7, 6, 5, 5, 3, 7, 7, 7, 6, 5, 5, 28, 24, 21, 19, 15, 11, 26, 26, 25, 25, 24, 23, 24, 23, 19, 14, 13, 9, 6, 6, 5, 3, 3, 2, 29, 27, 27, 26, 24, 23, 26, 26, 25, 25, 24, 24, 18, 16, 14, 14, 12, 12, 27, 24, 24, 20, 20, 17, 20, 17, 14, 13, 7, 6, 3, 3, 2, 1, 3, 2, 24, 22, 20, 17, 16, 11, 13, 12, 9, 9, 5, 4, 12, 13, 12, 11, 11, 11, 21, 21, 16, 14, 12, 10, 8, 7, 6, 5, 4, 3, 18, 17, 16, 17, 16, 15, 24, 19, 17, 9, 8, 2, 22, 22, 20, 19, 16, 16, 21, 18, 12, 10, 5, 5, 21, 21, 20, 18, 17, 17, 13, 12, 11, 10, 10, 9, 29, 21, 18, 15, 10, 1, 16, 15, 12, 10, 9, 7, 20, 18, 15, 13, 8, 8, 13, 12, 11, 9, 8, 7, 10, 9, 9, 8, 8, 7, 9, 7, 7, 5, 4, 4, 23, 20, 18, 17, 14, 10, 20, 17, 17, 15, 13, 11, 22, 22, 22, 22, 22, 22, 9, 8, 7, 7, 6, 5, 23, 21, 21, 19, 18, 18, 28, 22, 18, 14, 6, 5, 15, 12, 10, 7, 3, 3, 21, 20, 19, 17, 15, 13, 23, 23, 22, 20, 20, 19, 29, 27, 26, 25, 25, 24, 22, 21, 20, 20, 18, 17, 22, 19, 19, 14, 13, 12, 16, 14, 10, 9, 5, 1, 21, 20, 14, 9, 7, 3, 15, 15, 11, 8, 5, 5, 23, 20, 19, 17, 16, 12, 29, 28, 26, 26, 24, 23, 25, 24, 22, 20, 18, 16, 14, 11, 9, 8, 6, 3, 9, 9, 8, 6, 6, 5, 9, 9, 8, 9, 9, 9, 19, 18, 18, 17, 17, 17, 11, 11, 11, 11, 11, 11, 17, 17, 12, 12, 9, 6, 15, 15, 15, 15, 15, 15, 14, 11, 9, 7, 7, 4, 27, 25, 23, 22, 21, 21, 22, 21, 21, 20, 20, 19, 12, 12, 11, 9, 9, 8, 29, 25, 19, 15, 14, 10, 14, 12, 11, 11, 9, 8, 27, 25, 18, 16, 12, 5, 23, 20, 19, 13, 11, 10, 21, 21, 20, 20, 19, 18, 25, 24, 23, 22, 22, 21, 23, 21, 15, 15, 9, 6, 26, 25, 24, 24, 22, 21, 20, 20, 16, 10, 5, 3, 21, 15, 13, 13, 7, 7, 17, 16, 15, 14, 13, 13, 19, 16, 14, 14, 11, 9, 20, 17, 16, 15, 14, 13, 12, 10, 8, 7, 5, 4, 22, 21, 20, 19, 19, 18, 23, 22, 22, 21, 21, 20, 26, 21, 18, 15, 12, 7, 17, 13, 12, 7, 6, 3, 13, 9, 8, 6, 4, 3, 12, 12, 12, 12, 12, 12|];